100
1000
741
285
226
886
512
794
765
889
243
313
826
228
860
200
349
455
662
553
586
634
348
597
516
738
716
567
749
724
306
581
714
615
896
824
226
562
654
553
557
308
379
365
468
372
433
772
839
521
269
228
768
627
879
621
362
551
588
507
298
355
684
490
542
325
548
787
813
357
890
268
657
703
810
270
305
845
845
659
622
866
229
780
255
537
725
603
516
358
344
384
887
525
599
809
866
211
772
542
626
584
